decompositions/zmienne_worki/g_100_75_10.td
s td 50 5 100
b 1 97 
b 2 25 
b 3 7 74 
b 4 55 
b 5 5 19 
b 6 21 
b 7 64 
b 8 75 
b 9 62 
b 10 53 73 
b 11 3 15 35 43 50 
b 12 63 
b 13 82 
b 14 83 
b 15 10 71 
b 16 45 
b 17 61 
b 18 98 
b 19 39 
b 20 31 
b 21 33 78 
b 22 6 67 
b 23 9 88 
b 24 27 72 
b 25 60 90 
b 26 66 85 
b 27 1 42 92 
b 28 28 
b 29 11 22 87 
b 30 2 86 99 
b 31 12 36 84 
b 32 48 68 79 
b 33 20 
b 34 70 95 96 
b 35 18 
b 36 46 57 89 
b 37 47 
b 38 30 65 91 
b 39 40 44 58 
b 40 34 
b 41 54 100 
b 42 4 56 59 
b 43 14 37 81 
b 44 49 76 77 93 
b 45 23 52 69 94 
b 46 8 80 
b 47 16 41 51 
b 48 17 24 26 
b 49 13 29 
b 50 32 38 
1 2
1 3
2 4
3 5
4 6
5 7
6 8
7 9
8 10
9 11
10 12
11 13
12 14
13 15
14 16
15 17
16 18
17 19
18 20
19 21
20 22
21 23
22 24
23 25
24 26
25 27
26 28
28 29
29 30
30 31
31 32
32 33
33 34
34 35
35 36
36 37
37 38
38 39
39 40
40 41
41 42
42 43
43 44
44 45
45 46
46 47
47 48
48 49
49 50
