graphs/pace/raport/zmienne_worki/g_100_75_10.gr
p tw 100 75
3 15
3 35
3 43
3 50
15 35
15 43
15 50
35 43
35 50
43 50
48 68
48 79
68 79
30 65
30 91
65 91
60 90
66 85
10 71
27 72
6 67
7 74
2 86
2 99
86 99
32 38
33 78
1 42
1 92
42 92
70 95
70 96
95 96
40 44
40 58
44 58
49 76
49 77
49 93
76 77
76 93
77 93
8 80
11 22
11 87
22 87
54 100
46 57
46 89
57 89
17 24
17 26
24 26
12 36
12 84
36 84
13 29
5 19
23 52
23 69
23 94
52 69
52 94
69 94
14 37
14 81
37 81
53 73
9 88
4 56
4 59
56 59
16 41
16 51
41 51
